 1 1200 9 
 2 1700 14 5 
 3 1500 21 12 7 
 4 1400 23 22 17 10 
 5 1700 22 21 16 21 19 
 6 1400 25 24 23 30 28 9 
 7 1200 32 31 26 27 25 10 7 
 8 1900 36 35 30 37 35 16 11 10 
 9 1800 38 37 36 43 41 22 13 16 6 
 10 1600 42 41 36 31 29 20 17 10 6 12 
 11 1700 50 49 44 37 31 28 25 18 14 12 8 
 12 1100 52 51 46 39 29 30 27 20 16 20 10 10 
